presolving:
(round 1, fast)       28500 del vars, 331 del conss, 0 add conss, 24198 chg bounds, 58 chg sides, 58 chg coeffs, 0 upgd conss, 0 impls, 10 clqs
(round 2, fast)       28530 del vars, 331 del conss, 0 add conss, 24198 chg bounds, 58 chg sides, 58 chg coeffs, 0 upgd conss, 0 impls, 10 clqs
(round 3, exhaustive) 28530 del vars, 341 del conss, 0 add conss, 24198 chg bounds, 58 chg sides, 58 chg coeffs, 0 upgd conss, 0 impls, 10 clqs
(round 4, exhaustive) 28530 del vars, 341 del conss, 0 add conss, 24198 chg bounds, 58 chg sides, 58 chg coeffs, 50 upgd conss, 0 impls, 10 clqs
(round 5, fast)       30030 del vars, 352 del conss, 0 add conss, 24198 chg bounds, 58 chg sides, 58 chg coeffs, 50 upgd conss, 0 impls, 0 clqs
(round 6, fast)       30030 del vars, 391 del conss, 0 add conss, 24198 chg bounds, 58 chg sides, 58 chg coeffs, 50 upgd conss, 0 impls, 0 clqs
   (4.6s) probing cycle finished: starting next cycle
   (4.6s) symmetry computation started: requiring (bin +, int -, cont -), (fixed: bin -, int +, cont +)
   (4.7s) no symmetry present
presolving (7 rounds: 7 fast, 3 medium, 3 exhaustive):
 30030 deleted vars, 391 deleted constraints, 0 added constraints, 24198 tightened bounds, 0 added holes, 58 changed sides, 58 changed coefficients
 15000 implications, 0 cliques
presolved problem has 15600 variables (600 bin, 0 int, 0 impl, 15000 cont) and 1225 constraints
    625 constraints of type <linear>
    600 constraints of type <nonlinear>
Presolving Time: 4.48

 time | node  | left  |LP iter|LP it/n|mem/heur|mdpt |vars |cons |rows |cuts |sepa|confs|strbr|  dualbound   | primalbound  |  gap   | compl. 
  5.6s|     1 |     0 |    94 |     - |   287M |   0 |  31k|1226 |1225 |   0 |  0 |   1 |   0 | 9.194387e+04 |      --      |    Inf | unknown
r 5.6s|     1 |     0 |    94 |     - |shifting|   0 |  31k|1226 |1225 |   0 |  0 |   1 |   0 | 9.194387e+04 | 3.075013e+05 | 234.44%| unknown
  7.1s|     1 |     0 |   107 |     - |   301M |   0 |  31k|1226 |1235 |  10 |  1 |   1 |   0 | 9.283835e+04 | 3.075013e+05 | 231.22%| unknown
  7.2s|     1 |     0 |   107 |     - |   303M |   0 |  31k|1226 |1235 |  10 |  1 |   1 |   0 | 9.283835e+04 | 3.075013e+05 | 231.22%| unknown
  7.3s|     1 |     0 |   119 |     - |   303M |   0 |  31k|1226 |1241 |  16 |  2 |   1 |   0 | 9.341753e+04 | 3.075013e+05 | 229.17%| unknown
  7.4s|     1 |     0 |   125 |     - |   303M |   0 |  31k|1226 |1245 |  20 |  3 |   1 |   0 | 9.354887e+04 | 3.075013e+05 | 228.71%| unknown
  7.6s|     1 |     0 |   140 |     - |   304M |   0 |  31k|1226 |1256 |  31 |  4 |   1 |   0 | 9.451743e+04 | 3.075013e+05 | 225.34%| unknown
  7.7s|     1 |     0 |   143 |     - |   304M |   0 |  31k|1226 |1258 |  33 |  5 |   1 |   0 | 9.460047e+04 | 3.075013e+05 | 225.05%| unknown
r 7.7s|     1 |     0 |   143 |     - |shifting|   0 |  31k|1226 |1258 |  33 |  5 |   1 |   0 | 9.460047e+04 | 2.781325e+05 | 194.01%| unknown
  7.9s|     1 |     0 |   148 |     - |   304M |   0 |  31k|1226 |1262 |  37 |  6 |   1 |   0 | 9.480435e+04 | 2.781325e+05 | 193.38%| unknown
r 8.0s|     1 |     0 |   148 |     - |randroun|   0 |  31k|1226 |1262 |   0 |  6 |   1 |   0 | 9.480435e+04 | 9.492986e+04 |   0.13%| unknown
  8.0s|     1 |     0 |   148 |     - |   306M |   0 |  31k|1226 |1262 |  37 |  6 |   1 |   0 | 9.480435e+04 | 9.492986e+04 |   0.13%| unknown
  8.1s|     1 |     0 |   148 |     - |   307M |   0 |  31k|1226 |1262 |  37 |  6 |   1 |   0 | 9.480435e+04 | 9.492986e+04 |   0.13%| unknown
  8.1s|     1 |     0 |   148 |     - |   307M |   0 |  31k|1226 |1262 |  37 |  6 |   1 |   0 | 9.480435e+04 | 9.492986e+04 |   0.13%| unknown
  8.2s|     1 |     0 |   153 |     - |   308M |   0 |  31k|1226 |1265 |  40 |  8 |   1 |   0 | 9.489344e+04 | 9.492986e+04 |   0.04%| unknown
 time | node  | left  |LP iter|LP it/n|mem/heur|mdpt |vars |cons |rows |cuts |sepa|confs|strbr|  dualbound   | primalbound  |  gap   | compl. 
  8.3s|     1 |     0 |   153 |     - |   308M |   0 |  31k|1226 |1265 |  40 |  8 |   1 |   0 | 9.489344e+04 | 9.492986e+04 |   0.04%| unknown
  8.4s|     1 |     0 |   154 |     - |   308M |   0 |  31k|1226 |1266 |  41 |  9 |   1 |   0 | 9.489408e+04 | 9.492986e+04 |   0.04%| unknown
  8.4s|     1 |     0 |   154 |     - |   308M |   0 |  31k|1226 |1266 |  41 |  9 |   1 |   0 | 9.489408e+04 | 9.492986e+04 |   0.04%| unknown
 20.7s|     1 |     0 |  5154 |     - |   339M |   0 |  31k| 683 |1266 |  41 | 11 |   1 |   0 | 9.489408e+04 | 9.492986e+04 |   0.04%| unknown
 20.8s|     1 |     0 |  5156 |     - |   340M |   0 |  31k| 683 |1268 |  43 | 12 |   1 |   0 | 9.491833e+04 | 9.492986e+04 |   0.01%| unknown
 20.8s|     1 |     0 |  5156 |     - |   340M |   0 |  31k| 683 | 733 |  43 | 12 |   1 |   0 | 9.491833e+04 | 9.492986e+04 |   0.01%| unknown
 31.8s|     1 |     0 | 10156 |     - |   515M |   0 |  31k| 682 | 733 |  43 | 14 |   1 |   0 | 9.491833e+04 | 9.492986e+04 |   0.01%| unknown
 31.9s|     1 |     0 | 10157 |     - |   516M |   0 |  31k| 682 | 734 |  44 | 15 |   1 |   0 | 9.492450e+04 | 9.492986e+04 |   0.01%| unknown
 32.0s|     1 |     0 | 10158 |     - |   516M |   0 |  31k| 682 | 735 |  45 | 17 |   1 |   0 | 9.492986e+04 | 9.492986e+04 |   0.00%| unknown
 32.0s|     1 |     0 | 10158 |     - |   516M |   0 |  31k| 682 | 735 |  45 | 17 |   1 |   0 | 9.492986e+04 | 9.492986e+04 |   0.00%| unknown

SCIP Status        : problem is solved [optimal solution found]
Solving Time (sec) : 32.05
Solving Nodes      : 1
Primal Bound       : +9.49298568337846e+04 (7 solutions)
Dual Bound         : +9.49298568337846e+04
Gap                : 0.00 %
Solve Status: optimal
Solve Time: 32.09 seconds
